#
# Ag2 M06-D3/Def2-TZVPPD
#
! m06 d3zero def2-tzvppd def2/jk grid4 nofinalgrid

*xyz 0 1
Ag         0.00000        0.00000        0.00000
Ag         0.00000        0.00000        2.58711
*

%maxcore 5000

%pal
nprocs = 28
end

