#
# alcl M06-D3/Def2-TZVPPD
#
! m06 d3zero def2-tzvppd def2/jk grid4 nofinalgrid

*xyz 0 1
Cl         0.00000        0.00000       -1.07053
Al         0.00000        0.00000        1.07053
*

%maxcore 5000

%pal
nprocs = 28
end

