#
# CH3 M06-D3/Def2-TZVPPD
#
! m06 d3zero def2-tzvppd def2/jk grid4 nofinalgrid

*xyz 0 2
C          0.00000        0.00000        0.00000
H          0.00000        0.00000        1.07732
H          0.93298        0.00000       -0.53866
H         -0.93298        0.00000       -0.53866
*

%maxcore 5000

%pal
nprocs = 28
end

