#
# FeH M06-D3/Def2-TZVPPD
#
! m06 d3zero def2-tzvppd def2/jk grid4 nofinalgrid

*xyz 0 4
Fe         0.00000        0.00000        0.00000
H          0.00000        0.00000        1.61000
*

%maxcore 5000

%pal
nprocs = 28
end

