memory 120 GB

molecule {
0 2
C          0.00000        0.00000        0.00000
H          0.00000        0.00000        1.07732
H          0.93298        0.00000       -0.53866
H         -0.93298        0.00000       -0.53866
 }

set reference uks
set dynamic_level 1
set basis Def2-TZVPPD

energy("M11-D3BJ")
