memory 120 GB

molecule {
1 1
Cu         0.00000        0.00000        0.00000
 }

set dynamic_level 1
set basis Def2-TZVPPD

energy("M11-D3BJ")
