memory 120 GB

molecule {
1 1
Cu         0.00000        0.00000       -0.49385
O          0.00000        0.00000        1.33615
H         -0.83138        0.00000        1.81615
H          0.83138        0.00000        1.81615
 }

set dynamic_level 1
set basis Def2-TZVPPD

energy("M11-D3BJ")
