#
# Cr2 wB97M-V/Def2-TZVPPD
#
! wb97m-v def2-tzvppd def2/jk grid4 nofinalgrid numgrad

*xyz 0 1
Cr         0.00000        0.00000        0.00000
Cr         0.00000        0.00000        1.68000
*

%maxcore 5000

%pal
nprocs = 28
end

