#
# VS wB97M-V/Def2-TZVPPD
#
! wb97m-v def2-tzvppd def2/jk grid4 nofinalgrid

*xyz 0 4
V          0.00000        0.00000        0.00000
S          0.00000        0.00000        2.04800
*

%maxcore 5000

%pal
nprocs = 28
end

