#
# NiCH2+ TPSS-D3BJ/Def2-TZVPPD
#
! tpss d3bj def2-tzvppd def2/j grid4 nofinalgrid

*xyz 1 2
C          0.00000        0.00000        0.00000
Ni         0.00000        0.00000        1.78130
H          0.93287        0.00000       -0.58718
H         -0.93287        0.00000       -0.58718
*

%maxcore 5000

%pal
nprocs = 28
end

