memory 120 GB

molecule {
0 1
O          0.00000        0.00000        0.00000
H          0.00000        0.00000        0.95691
H          0.92636        0.00000       -0.23987
 }

set dynamic_level 1
set basis Def2-TZVPPD

energy("MN15-D3BJ")
