memory 120 GB

molecule {
0 2
Li         0.00000        0.00000        0.00000
O          0.00000        0.00000        1.68900
 }

set reference uks
set dynamic_level 1
set basis Def2-TZVPPD

energy("MN15-D3BJ")
