#
# b2 wB97X-V/Def2-TZVPPD
#
! wb97x-v def2-tzvppd def2/jk grid4 nofinalgrid

*xyz 0 3
B          0.00000        0.00000        0.80705
B          0.00000        0.00000       -0.80705
*

%maxcore 5000

%pal
nprocs = 28
end

