#
# b2 M06-D3/Def2-TZVPPD
#
! m06 d3zero def2-tzvppd def2/jk grid4 nofinalgrid

*xyz 0 3
B          0.00000        0.00000        0.80705
B          0.00000        0.00000       -0.80705
*

%maxcore 5000

%pal
nprocs = 28
end

