#
# o3 M06-D3/Def2-TZVPPD
#
! m06 d3zero def2-tzvppd def2/jk grid4 nofinalgrid

*xyz 0 1
O          0.00000        0.00000        0.00000
O          0.00000        0.00000        1.26881
O          1.12933        0.00000       -0.57836
*

%maxcore 5000

%pal
nprocs = 28
end

