#
# V2 M06-D3/Def2-TZVPPD
#
! m06 d3zero def2-tzvppd def2/jk grid4 nofinalgrid

*xyz 0 3
V          0.00000        0.00000        0.00000
V          0.00000        0.00000        1.77000
*

%maxcore 5000

%pal
nprocs = 28
end

