#
# FeCO5 ri-B2PLYP-D3BJ/Def2-TZVPPD
#
! rijk ri-b2plyp d3bj def2-tzvppd def2/jk def2-tzvppd/c grid4 nofinalgrid

*xyz 0 1
Fe        -0.20173       -0.07205       -0.00000
C          1.72826       -0.07205        0.00000
O          2.84367       -0.07205        0.00000
C         -0.20170       -0.07205       -1.93000
O         -0.20173       -0.07205       -3.04540
C         -0.20170       -0.07205        1.93000
O         -0.20173       -0.07205        3.04540
C         -1.16675       -1.74347        0.00000
O         -1.72443       -2.70944        0.00000
C         -1.16675        1.59938        0.00000
O         -1.72443        2.56535        0.00000
*

%maxcore 5000

%pal
nprocs = 28
end

