#
# s4 ri-B2PLYP-D3BJ/Def2-TZVPPD
#
! rijk ri-b2plyp d3bj def2-tzvppd def2/jk def2-tzvppd/c grid4 nofinalgrid

*xyz 0 1
S          0.00000        0.00000        0.00000
S          0.00000        0.00000        1.90634
S          2.06704        0.00000        2.44872
S          3.00303        0.00000        0.78798
*

%maxcore 5000

%pal
nprocs = 28
end

