#
# CuH2O+ ri-B2PLYP-D3BJ/Def2-TZVPPD
#
! rijk ri-b2plyp d3bj def2-tzvppd def2/jk def2-tzvppd/c grid4 nofinalgrid

*xyz 1 1
Cu         0.00000        0.00000       -0.49385
O          0.00000        0.00000        1.33615
H         -0.83138        0.00000        1.81615
H          0.83138        0.00000        1.81615
*

%maxcore 5000

%pal
nprocs = 28
end

