#
# AgH wB97X-V/Def2-TZVPPD
#
! wb97x-v def2-tzvppd def2/jk grid4 nofinalgrid numgrad

*xyz 0 1
Ag         0.00000        0.00000        0.00000
H          0.00000        0.00000        1.61800
*

%maxcore 5000

%pal
nprocs = 28
end

