#
# Cu+ wB97X-V/Def2-TZVPPD
#
! wb97x-v def2-tzvppd def2/jk grid4 nofinalgrid numgrad

*xyz 1 1
Cu         0.00000        0.00000        0.00000
*

%maxcore 5000

%pal
nprocs = 28
end

