#
# Zr2 wB97X-V/Def2-TZVPPD
#
! wb97x-v def2-tzvppd def2/jk grid4 nofinalgrid

*xyz 0 3
Zr         0.00000        0.00000        0.00000
Zr         0.00000        0.00000        2.24000
*

%maxcore 5000

%pal
nprocs = 28
end

