#
# Cr+ wB97M-V/Def2-TZVPPD
#
! wb97m-v def2-tzvppd def2/jk grid4 nofinalgrid

*xyz 1 6
Cr         0.00000        0.00000        0.00000
*

%maxcore 5000

%pal
nprocs = 28
end

