#
# CrCH3+ wB97M-V/Def2-TZVPPD
#
! wb97m-v def2-tzvppd def2/jk grid4 nofinalgrid

*xyz 1 5
C          0.00000        0.00000        0.00000
H          0.00000        0.00000        1.10000
H          1.03709        0.00000       -0.36667
H         -0.51855        0.89815       -0.36667
Cr        -0.89567       -1.55134       -0.63333
*

%maxcore 5000

%pal
nprocs = 28
end

