#
# FeH wB97M-V/Def2-TZVPPD
#
! wb97m-v def2-tzvppd def2/jk grid4 nofinalgrid numgrad

*xyz 0 4
Fe         0.00000        0.00000        0.00000
H          0.00000        0.00000        1.61000
*

%maxcore 5000

%pal
nprocs = 28
end

