#
# LiCl wB97M-V/Def2-TZVPPD
#
! wb97m-v def2-tzvppd def2/jk grid4 nofinalgrid numgrad

*xyz 0 1
Li         0.00000        0.00000        0.00000
Cl         0.00000        0.00000        2.02067
*

%maxcore 5000

%pal
nprocs = 28
end

