#
# VCO+ wB97M-V/Def2-TZVPPD
#
! wb97m-v def2-tzvppd def2/jk grid4 nofinalgrid

*xyz 1 5
V          0.00000        0.00000        0.00000
C          0.00000        0.00000        2.11314
O          0.00000        0.00000        3.23351
*

%maxcore 5000

%pal
nprocs = 28
end

