memory 120 GB

molecule {
0 1
Ag         0.00000        0.00000        0.00000
Ag         0.00000        0.00000        2.58711
 }

set dynamic_level 1
set basis Def2-TZVPPD

energy("GAM")
