memory 120 GB

molecule {
0 3
Co         0.00000        0.00000        0.00000
H          0.00000        0.00000        1.53100
 }

set reference uks
set dynamic_level 1
set basis Def2-TZVPPD

energy("GAM")
