memory 120 GB

molecule {
1 5
C          0.00000        0.00000        0.00000
H          0.00000        0.00000        1.10000
H          1.03709        0.00000       -0.36667
H         -0.51855        0.89815       -0.36667
Cr        -0.89567       -1.55134       -0.63333
 }

set reference uks
set dynamic_level 1
set basis Def2-TZVPPD

energy("GAM")
