memory 120 GB

molecule {
1 5
V          0.00000        0.00000        0.00000
C          0.00000        0.00000        2.11314
O          0.00000        0.00000        3.23351
 }

set reference uks
set dynamic_level 1
set basis Def2-TZVPPD

energy("GAM")
