memory 120 GB

molecule {
0 3
Zr         0.00000        0.00000        0.00000
Zr         0.00000        0.00000        2.24000
 }

set reference uks
set dynamic_level 1
set basis Def2-TZVPPD

energy("GAM")
