memory 120 GB

molecule {
0 1
Cr         0.00000        0.00000        0.00000
Cr         0.00000        0.00000        1.68000
 }

set dynamic_level 1
set basis Def2-TZVPPD

energy("M11-D3BJ")
