memory 120 GB

molecule {
0 1
O          0.00000        0.00000        0.00000
O          0.00000        0.00000        1.26881
O          1.12933        0.00000       -0.57836
 }

set dynamic_level 1
set basis Def2-TZVPPD

energy("M11-D3BJ")
