memory 120 GB

molecule {
0 3
V          0.00000        0.00000        0.00000
V          0.00000        0.00000        1.77000
 }

set reference uks
set dynamic_level 1
set basis Def2-TZVPPD

energy("M11-D3BJ")
