#
# c2 TPSSh-D3BJ/Def2-TZVPPD
#
! tpssh d3bj def2-tzvppd def2/jk grid4 nofinalgrid

*xyz 0 1
C          0.00000        0.00000       -0.62000
C          0.00000        0.00000        0.62000
*

%maxcore 5000

%pal
nprocs = 28
end

