#
# Cr2 TPSSh-D3BJ/Def2-TZVPPD
#
! tpssh d3bj def2-tzvppd def2/jk grid4 nofinalgrid

*xyz 0 1
Cr         0.00000        0.00000        0.00000
Cr         0.00000        0.00000        1.68000
*

%maxcore 5000

%pal
nprocs = 28
end

