memory 120 GB

molecule {
0 1
Cl         0.00000        0.00000       -1.07053
Al         0.00000        0.00000        1.07053
 }

set dynamic_level 1
set basis Def2-TZVPPD

energy("SCAN-D3BJ")
