memory 120 GB

molecule {
0 1
Cu         0.00000        0.00000        0.00000
Cu         0.00000        0.00000        2.22000
 }

set dynamic_level 1
set basis Def2-TZVPPD

energy("SCAN-D3BJ")
