memory 120 GB

molecule {
0 1
Li         0.00000        0.00000        0.00000
Cl         0.00000        0.00000        2.02067
 }

set dynamic_level 1
set basis Def2-TZVPPD

energy("SCAN-D3BJ")
