memory 120 GB

molecule {
0 1
C          0.00000        0.00000       -0.62000
C          0.00000        0.00000        0.62000
 }

set dynamic_level 1
set basis Def2-TZVPPD

energy("GAM")
