memory 120 GB

molecule {
0 1
O          0.00000        0.00000        0.64242
Cl         1.40117        0.00000       -0.32121
Cl        -1.40117        0.00000       -0.32121
 }

set dynamic_level 1
set basis Def2-TZVPPD

energy("GAM")
