memory 120 GB

molecule {
1 2
C          0.00000        0.00000        0.00000
Ni         0.00000        0.00000        1.78130
H          0.93287        0.00000       -0.58718
H         -0.93287        0.00000       -0.58718
 }

set reference uks
set dynamic_level 1
set basis Def2-TZVPPD

energy("GAM")
