memory 120 GB

molecule {
0 1
S          0.00000        0.00000        0.00000
S          0.00000        0.00000        1.90634
S          2.06704        0.00000        2.44872
S          3.00303        0.00000        0.78798
 }

set dynamic_level 1
set basis Def2-TZVPPD

energy("GAM")
