#
# cl2o ri-DSD-BLYP/2013-D3BJ/Def2-TZVPPD
#
! rijk ri-dsd-blyp/2013 d3bj def2-tzvppd def2/jk def2-tzvppd/c grid4 nofinalgrid

*xyz 0 1
O          0.00000        0.00000        0.64242
Cl         1.40117        0.00000       -0.32121
Cl        -1.40117        0.00000       -0.32121
*

%maxcore 5000

%pal
nprocs = 28
end

