#
# FeH TPSS-D3BJ/Def2-TZVPPD
#
! tpss d3bj def2-tzvppd def2/j grid4 nofinalgrid

*xyz 0 4
Fe         0.00000        0.00000        0.00000
H          0.00000        0.00000        1.61000
*

%maxcore 5000

%pal
nprocs = 28
end

