#
# H TPSS-D3BJ/Def2-TZVPPD
#
! tpss d3bj def2-tzvppd def2/j grid4 nofinalgrid

*xyz 0 2
H          0.00000        0.00000        0.00000
*

%maxcore 5000

%pal
nprocs = 28
end

