#
# V+ TPSS-D3BJ/Def2-TZVPPD
#
! tpss d3bj def2-tzvppd def2/j grid4 nofinalgrid

*xyz 1 5
V          0.00000        0.00000        0.00000
*

%maxcore 5000

%pal
nprocs = 28
end

