#
# Zr2 TPSS-D3BJ/Def2-TZVPPD
#
! tpss d3bj def2-tzvppd def2/j grid4 nofinalgrid

*xyz 0 3
Zr         0.00000        0.00000        0.00000
Zr         0.00000        0.00000        2.24000
*

%maxcore 5000

%pal
nprocs = 28
end

