memory 120 GB

molecule {
0 3
B          0.00000        0.00000        0.80705
B          0.00000        0.00000       -0.80705
 }

set reference uks
set dynamic_level 1
set basis Def2-TZVPPD

energy("MN15-D3BJ")
