memory 120 GB

molecule {
0 3
C          0.00000        0.00000        0.00000
H          0.00000        0.00000        1.07672
H          0.77665        0.00000       -0.74575
 }

set reference uks
set dynamic_level 1
set basis Def2-TZVPPD

energy("MN15-D3BJ")
