memory 120 GB

molecule {
0 1
Cl         0.00000        0.00000        1.02117
Cl         0.00000        0.00000       -1.02117
 }

set dynamic_level 1
set basis Def2-TZVPPD

energy("MN15-D3BJ")
