memory 120 GB

molecule {
0 3
O          0.00000        0.00000        0.00000
O          0.00000        0.00000        1.20780
 }

set reference uks
set dynamic_level 1
set basis Def2-TZVPPD

energy("MN15-D3BJ")
