#
# VCO+ ri-DSD-BLYP/2013-D3BJ/Def2-TZVPPD
#
! rijk ri-dsd-blyp/2013 d3bj def2-tzvppd def2/jk def2-tzvppd/c grid4 nofinalgrid

*xyz 1 5
V          0.00000        0.00000        0.00000
C          0.00000        0.00000        2.11314
O          0.00000        0.00000        3.23351
*

%maxcore 5000

%pal
nprocs = 28
end

