#
# CoH TPSSh-D3BJ/Def2-TZVPPD
#
! tpssh d3bj def2-tzvppd def2/jk grid4 nofinalgrid

*xyz 0 3
Co         0.00000        0.00000        0.00000
H          0.00000        0.00000        1.53100
*

%maxcore 5000

%pal
nprocs = 28
end

