#
# H2O TPSSh-D3BJ/Def2-TZVPPD
#
! tpssh d3bj def2-tzvppd def2/jk grid4 nofinalgrid

*xyz 0 1
O          0.00000        0.00000        0.00000
H          0.00000        0.00000        0.95691
H          0.92636        0.00000       -0.23987
*

%maxcore 5000

%pal
nprocs = 28
end

